200
150
100
100
100
100
100
99
99
99
98
97
96
94
93
93
93
92
92
91
90
89
89
88
88
88
88
88
88
88
86
86
86
86
86
85
85
84
84
84
83
83
83
83
83
83
82
82
81
79
79
76
76
76
76
75
75
75
75
75
75
74
74
73
72
71
71
71
68
68
67
67
67
66
66
66
65
65
64
64
63
63
63
62
62
62
61
60
60
60
58
58
57
57
56
56
55
55
55
54
54
54
54
53
51
50
50
49
48
48
47
47
47
46
46
45
45
44
43
43
41
40
40
39
39
39
37
37
37
36
34
33
32
31
31
31
31
30
30
29
29
29
29
29
28
27
24
24
23
23
23
23
23
22
22
21
21
20
19
19
18
18
17
17
17
17
16
16
16
15
15
15
15
15
14
14
14
13
12
12
12
12
11
11
11
10
8
8
7
6
6
5
5
5
5
5
4
4
4
3
2
1
